(set-info :source  loris-7.ddns.comp.nus.edu.sg/~project/hip/) 
;Variables declarations
(declare-fun h_primed () Int)
(declare-fun h_2857 () Int)
(declare-fun n_2841 () Int)
(declare-fun n_2834 () Int)
(declare-fun an_2810 () Int)
(declare-fun cn () Int)
(declare-fun an () Int)
(declare-fun bn () Int)
(declare-fun h_2831 () Int)
(declare-fun n () Int)
(declare-fun n_2815 () Int)
(declare-fun h_2851 () Int)
(declare-fun n1_2866 () Int)
(declare-fun n2_2869 () Int)
;Relations declarations
;Axioms assertions
;Antecedent
(assert (<= 0 n_2841))
(assert (<= 0 n_2834))
(assert (= h_primed (+ 1 h_2857)))
(assert (or (and (= h_2857 n_2834) (>= n_2834 n_2841)) (and (= h_2857 n_2841) (< n_2834 n_2841))))
(assert (<= 0 an_2810))
(assert (= n_2841 an_2810))
(assert (<= 0 cn))
(assert (= n_2834 cn))
(assert (<= 0 bn))
(assert (<= 0 an))
(assert (<= 0 n))
(assert (<= 0 n_2815))
(assert (= an_2810 an))
(assert (<= bn (+ 1 cn)))
(assert (<= (+ 0 cn) (+ bn 1)))
(assert (or (and (= an bn) (>= bn cn)) (and (= an cn) (< bn cn))))
(assert (= n an))
(assert (= n_2815 bn))
(assert (or (and (= h_2831 n) (>= n n_2815)) (and (= h_2831 n_2815) (< n n_2815))))
(assert (= h_2851 (+ 1 h_2831)))
(assert (= n1_2866 n))
(assert (= n2_2869 n_2815))
;Negation of Consequence
(assert (not (or (and (= h_2851 (+ 1 n1_2866)) (<= n2_2869 n1_2866)) (and (= h_2851 (+ 1 n2_2869)) (< n1_2866 n2_2869)))))
(check-sat)